Route #1: 36 40 49 72 70 76 45 29
Route #2: 34 2 41 15 87 43 94 77
Route #3: 79 95 85 58 17 68 61 99 83
Route #4: 24 19 92 60 39 5 53 1
Route #5: 27 26 48 98 46 31 38 67
Route #6: 55 30 59 13 75 80 42
Route #7: 28 96 71 11 47 9 57 65 90 3
Route #8: 63 44 18 7 54 74 33 25
Route #9: 91 81 51 52 82 32 21
Route #10: 4 37 6 100 20 14 16 84
Route #11: 93 22 69 88 86 8 10 89 97 73
Route #12: 12 56 50 35 23 64 66 78 62
Cost 13961
